931.0
842.0
727.0
756.0
710.0
848.0
761.0
801.0
883.0
846.0
738.0
770.0
818.0
747.0
944.0
788.0
762.0
701.0
737.0
785.0
731.0
745.0
750.0
850.0
809.0
763.0
883.0
721.0
753.0
832.0
794.0
753.0
776.0
705.0
768.0
798.0
885.0
724.0
732.0
814.0
782.0
834.0
686.0
859.0
800.0
795.0
719.0
855.0
749.0
775.0
799.0
857.0
892.0
830.0
1046.0
736.0
909.0
795.0
764.0
957.0
723.0
700.0
718.0
807.0
702.0
774.0
752.0
786.0
736.0
960.0
751.0
695.0
752.0
866.0
991.0
808.0
771.0
988.0
782.0
723.0
1036.0
810.0
710.0
765.0
876.0
786.0
955.0
732.0
731.0
713.0
762.0
706.0
905.0
815.0
806.0
698.0
786.0
832.0
786.0
763.0
